0 53 40 73 171 74 75 133 22 41 145 115 58 152 0 0 105 180 198 67 23 186 56 197 72 21 0 0 26 149 179 165 55 25 170 39 187 139 155 4 110 0 0 154 138 12 109 177 163 24 134 130 54 195 0 0 28 184 116 68 150 80 121 29 169 77 196 76 0 0 111 50 157 33 185 81 164 34 78 129 79 3 158 0 0 102 120 135 35 136 65 71 161 9 51 0 0 132 69 101 30 160 128 66 103 188 20 122 1 176 0 0 27 162 70 131 32 181 90 108 10 189 167 0 0 127 190 31 159 126 63 64 11 62 148 88 0 0 146 182 123 19 107 175 49 143 168 7 194 106 52 0 0 18 199 114 8 174 46 36 47 124 48 82 153 0 0 89 166 83 125 45 17 173 84 5 118 60 147 0 0 156 6 61 113 86 16 93 99 104 96 183 0 0 112 59 98 193 91 191 44 141 85 0 0 94 95 151 92 37 100 192 119 140 38 14 142 97 117 0 